 vasp.5.4.1 05Feb16 (build Dec 03 2018 11:02:50) complex

 executed on           IFC91_ompi date 2019.11.26  12:24:41

 INCAR:
 POTCAR:    PAW_PBE Li 17Jan2003
 POTCAR:    PAW_PBE Ni 02Aug2007
 POTCAR:    PAW_PBE O 08Apr2002

 POTCAR:    PAW_PBE Li 17Jan2003
   VRHFIN =Li: s1p0

   TITEL  = PAW_PBE Li 17Jan2003
   POMASS =    7.010; ZVAL   =    1.000    mass and valenz
   ENMAX  =  140.000; ENMIN  =  100.000 eV

 POTCAR:    PAW_PBE Ni 02Aug2007
   VRHFIN =Ni:

   TITEL  = PAW_PBE Ni 02Aug2007
   POMASS =   58.690; ZVAL   =   10.000    mass and valenz
   ENMAX  =  269.532; ENMIN  =  202.149 eV

 POTCAR:    PAW_PBE O 08Apr2002
   VRHFIN =O: s2p4

   TITEL  = PAW_PBE O 08Apr2002
   POMASS =   16.000; ZVAL   =    6.000    mass and valenz
   ENMAX  =  400.000; ENMIN  =  300.000 eV

 Optimization of the real space projectors (new method)

 maximal supplied QI-value         = 18.33
 optimisation between [QCUT,QGAM] = [ 11.36, 22.73] = [ 36.17,144.67] Ry
 Optimized for a Real-space Cutoff    1.31 Angstroem

   l    n(q)    QCUT    max X(q) W(low)/X(q) W(high)/X(q)  e(spline)
   0      9    11.365    33.825    0.58E-04    0.63E-04    0.64E-07
   0      9    11.365     8.944    0.32E-04    0.47E-04    0.49E-07
   1      8    11.365     4.214    0.52E-04    0.37E-04    0.48E-07
 Optimization of the real space projectors (new method)

[...]

   l    n(q)    QCUT    max X(q) W(low)/X(q) W(high)/X(q)  e(spline)
   2     10    11.376    60.317    0.39E-04    0.36E-04    0.24E-06
   2     10    11.376    55.921    0.40E-04    0.37E-04    0.24E-06
   0     11    11.376    51.690    0.66E-04    0.39E-04    0.42E-06
   0     11    11.376    30.015    0.57E-04    0.36E-04    0.39E-06
   1     10    11.376    18.849    0.60E-04    0.19E-04    0.13E-06
   1     10    11.376    14.624    0.50E-04    0.17E-04    0.12E-06
 Optimization of the real space projectors (new method)

 maximal supplied QI-value         = 24.76
 optimisation between [QCUT,QGAM] = [ 11.39, 22.77] = [ 36.31,145.25] Ry
 Optimized for a Real-space Cutoff    1.20 Angstroem

   l    n(q)    QCUT    max X(q) W(low)/X(q) W(high)/X(q)  e(spline)
   0      8    11.387    20.381    0.89E-04    0.31E-03    0.27E-06
   0      8    11.387    15.268    0.93E-04    0.32E-03    0.29E-06
   1      8    11.387     5.964    0.53E-04    0.28E-03    0.29E-06
   1      8    11.387     5.382    0.37E-04    0.22E-03    0.26E-06

  PAW_PBE Li 17Jan2003                  :
  PAW_PBE Ni 02Aug2007                  :
  PAW_PBE O 08Apr2002                   :

 POSCAR: li3 ni3 o6
  positions in direct lattice
  velocities in cartesian coordinates
 exchange correlation table for  LEXCH =       14
   RHO(1)=    0.500       N(1)  =     2000
   RHO(2)=  100.500       N(2)  =     4000

 ion  position               nearest neighbor table
   1  0.998  0.269  0.167-  20 2.03  13 2.03  19 2.11  14 2.11  14 2.12  19 2.12   2 2.71   2 2.76
                             8 2.83   9 2.84   9 2.84   8 2.84  10 2.88   7 2.88   2 3.22   2 3.26
   2  0.517  0.709  0.107-  20 1.54  20 1.62  19 1.92   8 2.04   7 2.30   7 2.35  14 2.49  22 2.57
                             1 2.71   1 2.76   1 3.22   1 3.26
   3  0.503  0.100  0.833-  22 2.03  16 2.03  21 2.11  15 2.11  15 2.11  21 2.12   7 2.83  11 2.84
                            11 2.84   7 2.84   4 2.86   4 2.86   4 2.86   4 2.86   8 2.88  12 2.88
   4  0.002  0.600  0.833-  21 2.03  15 2.03  16 2.11  22 2.11  16 2.12  22 2.12   8 2.83  12 2.84
                             8 2.84  12 2.84   3 2.86   3 2.86   3 2.86   3 2.86  11 2.88   7 2.88
   5  0.000  0.935  0.500-  18 2.04  23 2.04  24 2.10  17 2.10  24 2.11  17 2.11   9 2.84  12 2.84
                            12 2.84   9 2.84   6 2.86   6 2.86   6 2.86   6 2.86  10 2.87  11 2.87
   6  0.500  0.435  0.500-  17 2.04  24 2.04  23 2.10  18 2.10  23 2.11  18 2.11  10 2.84  11 2.84
                            11 2.84  10 2.84   5 2.86   5 2.86   5 2.86   5 2.86   9 2.87  12 2.87
   7  0.000  0.935  1.000-  22 1.86  19 1.86  19 1.86  22 1.86  21 2.07  20 2.07   2 2.30   2 2.35
                             3 2.83   3 2.84   8 2.86   8 2.86   8 2.86   8 2.86   1 2.88   4 2.88
   8  0.500  0.435  0.000-  20 1.86  21 1.86  21 1.86  20 1.86   2 2.04  22 2.07  19 2.07   1 2.83
                             4 2.83   4 2.84   1 2.84   7 2.86   7 2.86   7 2.86   7 2.86   3 2.88
   9  0.497  0.103  0.333-  13 1.86  23 1.86  23 1.86  13 1.86  24 2.07  14 2.07   5 2.84   1 2.84
                             1 2.84   5 2.84  10 2.86  10 2.86  10 2.86  10 2.86   6 2.87
  10  0.998  0.603  0.333-  14 1.86  24 1.86  24 1.86  14 1.86  13 2.07  23 2.07   6 2.84   6 2.84
                             9 2.86   9 2.86   9 2.86   9 2.86   5 2.87   1 2.88
  11  0.003  0.266  0.667-  16 1.86  17 1.86  16 1.86  17 1.86  15 2.07  18 2.07   6 2.84   3 2.84
                             3 2.84   6 2.84  12 2.86  12 2.86  12 2.86  12 2.86   5 2.87   4 2.88
  12  0.503  0.766  0.667-  15 1.86  18 1.86  18 1.86  15 1.86  16 2.07  17 2.07   5 2.84   4 2.84
                             4 2.84   5 2.84  11 2.86  11 2.86  11 2.86  11 2.86   6 2.87   3 2.88
  13  0.997  0.959  0.259-   9 1.86   9 1.86   1 2.03  10 2.07
  14  0.497  0.459  0.259-  10 1.86  10 1.86   9 2.07   1 2.11   1 2.12   2 2.49
  15  0.003  0.911  0.741-  12 1.86  12 1.86   4 2.03  11 2.07   3 2.11   3 2.11
  16  0.503  0.411  0.741-  11 1.86  11 1.86   3 2.03  12 2.07   4 2.11   4 2.12
  17  0.502  0.122  0.592-  11 1.86  11 1.86   6 2.04  12 2.07   5 2.10   5 2.11
  18  0.002  0.622  0.592-  12 1.86  12 1.86   5 2.04  11 2.07   6 2.10   6 2.11
  19  0.500  0.079  0.074-   7 1.86   7 1.86   2 1.92   8 2.07   1 2.11   1 2.12
  20  1.000  0.579  0.074-   2 1.54   2 1.62   8 1.86   8 1.86   1 2.03   7 2.07
  21  0.000  0.290  0.926-   8 1.86   8 1.86   4 2.03   7 2.07   3 2.11   3 2.12
  22  0.500  0.790  0.926-   7 1.86   7 1.86   3 2.03   8 2.07   4 2.11   4 2.12   2 2.57
  23  0.998  0.247  0.408-   9 1.86   9 1.86   5 2.04  10 2.07   6 2.10   6 2.11
  24  0.498  0.747  0.408-  10 1.86  10 1.86   6 2.04   9 2.07   5 2.10   5 2.11

IMPORTANT INFORMATION: All symmetrisations will be switched off!
NOSYMM: (Re-)initialisation of all symmetry stuff for point group C_1.

Automatic generation of k-mesh.
 generate k-points for:    8    5    2
Space group operators:
 irot       det(A)        alpha          n_x          n_y          n_z        tau_x        tau_y        tau_z
    1     1.000000     0.000000     1.000000     0.000000     0.000000     0.000000     0.000000     0.000000

 Subroutine IBZKPT returns following result:

 Found     42 irreducible k-points:

 Following reciprocal coordinates:
            Coordinates               Weight
  0.000000  0.000000  0.000000      1.000000
  0.125000  0.000000  0.000000      2.000000
  0.250000  0.000000  0.000000      2.000000
  0.375000  0.000000  0.000000      2.000000
  0.500000  0.000000  0.000000      1.000000
  0.000000  0.200000  0.000000      2.000000
  0.125000  0.200000  0.000000      2.000000
  0.250000  0.200000  0.000000      2.000000
  0.375000  0.200000  0.000000      2.000000
  0.500000  0.200000  0.000000      2.000000
 -0.375000  0.200000  0.000000      2.000000
 -0.250000  0.200000  0.000000      2.000000
 -0.125000  0.200000  0.000000      2.000000
  0.000000  0.400000  0.000000      2.000000
  0.125000  0.400000  0.000000      2.000000
  0.250000  0.400000  0.000000      2.000000
  0.375000  0.400000  0.000000      2.000000
  0.500000  0.400000  0.000000      2.000000
 -0.375000  0.400000  0.000000      2.000000
 -0.250000  0.400000  0.000000      2.000000
 -0.125000  0.400000  0.000000      2.000000
  0.000000  0.000000  0.500000      1.000000
  0.125000  0.000000  0.500000      2.000000
  0.250000  0.000000  0.500000      2.000000
  0.375000  0.000000  0.500000      2.000000
  0.500000  0.000000  0.500000      1.000000
  0.000000  0.200000  0.500000      2.000000
  0.125000  0.200000  0.500000      2.000000
  0.250000  0.200000  0.500000      2.000000
  0.375000  0.200000  0.500000      2.000000
  0.500000  0.200000  0.500000      2.000000
 -0.375000  0.200000  0.500000      2.000000
 -0.250000  0.200000  0.500000      2.000000
 -0.125000  0.200000  0.500000      2.000000
  0.000000  0.400000  0.500000      2.000000
  0.125000  0.400000  0.500000      2.000000
  0.250000  0.400000  0.500000      2.000000
  0.375000  0.400000  0.500000      2.000000
  0.500000  0.400000  0.500000      2.000000
 -0.375000  0.400000  0.500000      2.000000
 -0.250000  0.400000  0.500000      2.000000
 -0.125000  0.400000  0.500000      2.000000

 Following cartesian coordinates:
            Coordinates               Weight
  0.000000  0.000000  0.000000      1.000000
  0.045805  0.000000  0.000000      2.000000
  0.091611  0.000000  0.000000      2.000000
  0.137416  0.000000  0.000000      2.000000
  0.183222  0.000000  0.000000      1.000000
  0.000000  0.039758  0.000000      2.000000
  0.045805  0.039758  0.000000      2.000000
  0.091611  0.039758  0.000000      2.000000
  0.137416  0.039758  0.000000      2.000000
  0.183222  0.039758  0.000000      2.000000
 -0.137416  0.039758  0.000000      2.000000
 -0.091611  0.039758  0.000000      2.000000
 -0.045805  0.039758  0.000000      2.000000
  0.000000  0.079516  0.000000      2.000000
  0.045805  0.079516  0.000000      2.000000
  0.091611  0.079516  0.000000      2.000000
  0.137416  0.079516  0.000000      2.000000
  0.183222  0.079516  0.000000      2.000000
 -0.137416  0.079516  0.000000      2.000000
 -0.091611  0.079516  0.000000      2.000000
 -0.045805  0.079516  0.000000      2.000000
  0.000000  0.000000  0.035580      1.000000
  0.045805  0.000000  0.035580      2.000000
  0.091611  0.000000  0.035580      2.000000
  0.137416  0.000000  0.035580      2.000000
  0.183222  0.000000  0.035580      1.000000
  0.000000  0.039758  0.035580      2.000000
  0.045805  0.039758  0.035580      2.000000
  0.091611  0.039758  0.035580      2.000000
  0.137416  0.039758  0.035580      2.000000
  0.183222  0.039758  0.035580      2.000000
 -0.137416  0.039758  0.035580      2.000000
 -0.091611  0.039758  0.035580      2.000000
 -0.045805  0.039758  0.035580      2.000000
  0.000000  0.079516  0.035580      2.000000
  0.045805  0.079516  0.035580      2.000000
  0.091611  0.079516  0.035580      2.000000
  0.137416  0.079516  0.035580      2.000000
  0.183222  0.079516  0.035580      2.000000
 -0.137416  0.079516  0.035580      2.000000
 -0.091611  0.079516  0.035580      2.000000
 -0.045805  0.079516  0.035580      2.000000

 I would recommend the setting:
   dimension x,y,z NGX =    20 NGY =   37 NGZ =  102
 SYSTEM =  unknown system
 POSCAR =  li3 ni3 o6

 Startparameter for this run:
   NWRITE =      2    write-flag & timer
   PREC   = accura    normal or accurate (medium, high low for compatibility)
   ISTART =      1    job   : 0-new  1-cont  2-samecut
   ICHARG =      0    charge: 1-file 2-atom 10-const
   ISPIN  =      2    spin polarized calculation?
   LNONCOLLINEAR =      F non collinear calculations
   LSORBIT =      F    spin-orbit coupling
   INIWAV =      1    electr: 0-lowe 1-rand  2-diag
   LASPH  =      T    aspherical Exc in radial PAW
[...]
  o =  0.9946  v =  0.8419 -0.0083  0.0140 -0.5394  0.0076  0.0000  0.0000  0.0000  0.0000  0.0000      0.0000  0.0000  0.0000  0.0000  0.0000  0.0000  0.0000  0.0000  0.0000  0.0000
  o =  1.0033  v =  0.0000  0.0000  0.0000  0.0000  0.0000 -0.0004 -0.4680 -0.5918 -0.0002  0.6564      0.0000  0.0000  0.0000  0.0000  0.0000  0.0000  0.0000  0.0000  0.0000  0.0000
  o =  1.0055  v = -0.0006 -0.5199 -0.6044 -0.0001  0.6036  0.0000  0.0000  0.0000  0.0000  0.0000      0.0000  0.0000  0.0000  0.0000  0.0000  0.0000  0.0000  0.0000  0.0000  0.0000
  o =  1.0670  v =  0.0009  0.7339  0.0456  0.0010  0.6778  0.0000  0.0000  0.0000  0.0000  0.0000      0.0000  0.0000  0.0000  0.0000  0.0000  0.0000  0.0000  0.0000  0.0000  0.0000

 eigenvalue-minimisations  :     0
 total energy-change (2. order) :-0.8359129E-06  (-0.1362897E-06)
 number of electron     138.0000063 magnetization       6.0000002
 augmentation part       44.2190002 magnetization       5.1117561

 Free energy of the ion-electron system (eV)
  alpha Z        PSCENC =       428.94280166
  Ewald energy   TEWEN  =     -8310.02910685
  -Hartree energ DENC   =     -3971.18334946
  -exchange      EXHF   =         0.00000000
  -V(xc)+E(xc)   XCENC  =       516.34722699
  PAW double counting   =     13811.41594584   -14065.36478981
  entropy T*S    EENTRO =         0.00135016
  eigenvalues    EBANDS =      -196.76130581
  atomic energy  EATOM  =     11661.26050125
  free energy    TOTEN  =      -125.37072113 eV

  energy without entropy =     -125.37207129  energy(sigma->0) =     -125.37117118

  average scaling for gradient   0.9856

 average (electrostatic) potential at core
  the test charge radii are     0.9748  0.9791  0.7215
  (the norm of the test charge is              1.0000)
       1 -22.6122       2 -22.7635       3 -22.7428       4 -22.7922       5 -22.5388
       6 -22.5168       7 -86.6076       8 -86.2900       9 -85.8640      10 -86.0228
      11 -86.2333      12 -86.2407      13 -69.2074      14 -69.4681      15 -69.6252
      16 -69.6201      17 -69.5901      18 -69.6026      19 -69.8770      20 -69.9733
      21 -69.7538      22 -69.9388      23 -69.3114      24 -69.4912

 E-fermi :   4.4247     XC(G=0): -11.8823     alpha+bet :-14.7970

[...]

 k-point     1 :       0.0000    0.0000    0.0000
  band No.  band energies     occupation
      1     -14.5645      1.00000
      2     -14.2240      1.00000
      3     -13.8653      1.00000
      4     -13.5585      1.00000
      5     -13.1200      1.00000
      6     -12.8733      1.00000
      7     -12.8108      1.00000
      8     -12.7351      1.00000
      9     -12.5958      1.00000
     10     -12.4491      1.00000
     11     -12.2598      1.00000
     12     -11.9534      1.00000
     13      -3.1019      1.00000
     14      -2.9416      1.00000
     15      -2.7520      1.00000
     16      -2.6877      1.00000
     17      -2.5259      1.00000
     18      -2.4048      1.00000
     19      -2.1628      1.00000
     20      -2.0827      1.00000
     21      -2.0524      1.00000
     22      -1.9883      1.00000
     23      -1.6976      1.00000
     24      -1.6268      1.00000
     25      -1.1460      1.00000
     26      -1.1130      1.00000
     27      -0.9789      1.00000
     28      -0.9307      1.00000
     29      -0.6604      1.00000
     30      -0.6389      1.00000
     31      -0.5642      1.00000
     32      -0.4278      1.00000
     33      -0.3107      1.00000
     34      -0.2314      1.00000
     35      -0.2139      1.00000
     36      -0.1149      1.00000
     37       0.0052      1.00000
     38       0.0990      1.00000
     39       0.1173      1.00000
     40       0.3779      1.00000
     41       0.4033      1.00000
     42       0.5146      1.00000
     43       0.6775      1.00000
     44       0.7002      1.00000
     45       0.9779      1.00000
     46       1.4935      1.00000
     47       1.8048      1.00000
     48       1.8495      1.00000
     49       1.9086      1.00000
     50       1.9936      1.00000
     51       2.1516      1.00000
     52       2.1794      1.00000
     53       2.2419      1.00000
     54       2.4280      1.00000
     55       2.6408      1.00000
     56       2.7668      1.00000
     57       2.9644      1.00000
     58       3.0344      1.00000
     59       3.1309      1.00000
     60       3.1777      1.00000
[...]
     82      13.3406      0.00000
     83      13.3690      0.00000
     84      13.5855      0.00000
     85      13.7969      0.00000
     86      14.3582      0.00000
     87      14.7264      0.00000
     88      15.7939      0.00000
     89      16.5068      0.00000
     90      16.7085      0.00000
     91      16.9837      0.00000
     92      17.1733      0.00000
     93      17.3929      0.00000
     94      17.5648      0.00000
     95      17.9035      0.00000
     96      18.2947      0.00000

[...]

 spin component 2

[...]

 k-point    42 :      -0.1250    0.4000    0.5000
  band No.  band energies     occupation
      1     -14.0061      1.00000
      2     -13.6336      1.00000
      3     -13.5995      1.00000
      4     -13.3294      1.00000
      5     -13.2289      1.00000
      6     -12.9122      1.00000
      7     -12.7894      1.00000
      8     -12.6494      1.00000
      9     -12.4140      1.00000
     10     -12.3269      1.00000
     11     -12.1431      1.00000
     12     -11.9211      1.00000
     13      -2.0951      1.00000
     14      -1.7798      1.00000
     15      -1.7295      1.00000
     16      -1.5477      1.00000
     17      -1.4274      1.00000
     18      -1.3007      1.00000
     19      -1.1443      1.00000
     20      -1.0140      1.00000
     21      -0.8228      1.00000
     22      -0.7365      1.00000
     23      -0.5450      1.00000
     24      -0.4916      1.00000
     25      -0.3169      1.00000
     26      -0.0552      1.00000
     27      -0.0329      1.00000
     28       0.2264      1.00000
     29       0.2870      1.00000
     30       0.3248      1.00000
     31       0.3537      1.00000
     32       0.5394      1.00000
     33       0.6285      1.00000
     34       0.6486      1.00000
     35       0.8205      1.00000
     36       0.9768      1.00000
     37       1.0850      1.00000
     38       1.3599      1.00000
     39       1.3769      1.00000
     40       1.4603      1.00000
     41       1.6300      1.00000
     42       1.6984      1.00000
     43       1.8057      1.00000
     44       1.8809      1.00000
     45       1.9144      1.00000
     46       2.1122      1.00000
     47       2.1992      1.00000
     48       2.3423      1.00000
     49       2.3971      1.00000
     50       2.6172      1.00000
     51       2.7415      1.00000
     52       2.8086      1.00000
     53       2.9343      1.00000
     54       2.9611      1.00000
     55       3.0714      1.00000
     56       3.1555      1.00000
     57       3.2239      1.00000
     58       3.2748      1.00000
     59       3.4312      1.00000
     60       3.4806      1.00000
[...]
     82      14.1666      0.00000
     83      14.4358      0.00000
     84      14.6535      0.00000
     85      14.8800      0.00000
     86      15.5615      0.00000
     87      15.6478      0.00000
     88      15.8362      0.00000
     89      16.4267      0.00000
     90      16.7717      0.00000
     91      17.3167      0.00000
     92      17.5477      0.00000
     93      17.7255      0.00000
     94      17.8972      0.00000
     95      18.1192      0.00000
     96      18.2018      0.00000

 soft charge-density along one line, spin component           1
         0         1         2         3         4         5         6         7         8         9
 total charge-density along one line

 soft charge-density along one line, spin component           2
         0         1         2         3         4         5         6         7         8         9
 total charge-density along one line

------------------------ aborting loop because EDIFF is reached ----------------------------------------

 total charge

# of ion     s       p       d       tot
  1        0.095   0.196   0.000   0.291
  2        0.222   0.558   0.000   0.780
  3        0.097   0.202   0.000   0.299
  4        0.097   0.200   0.000   0.297
  5        0.097   0.201   0.000   0.297
  6        0.097   0.201   0.000   0.298
  7        0.477   0.730   8.419   9.626
  8        0.474   0.728   8.456   9.657
  9        0.469   0.718   8.381   9.569
 10        0.464   0.710   8.365   9.539
 11        0.467   0.715   8.384   9.567
 12        0.467   0.716   8.384   9.567
 13        1.570   3.377   0.000   4.948
 14        1.562   3.409   0.000   4.971
 15        1.557   3.448   0.000   5.005
 16        1.558   3.447   0.000   5.005
 17        1.558   3.445   0.000   5.003
 18        1.558   3.445   0.000   5.003
 19        1.560   3.446   0.000   5.006
 20        1.567   3.565   0.000   5.131
 21        1.560   3.443   0.000   5.003
 22        1.559   3.447   0.000   5.006
 23        1.557   3.449   0.000   5.006
 24        1.559   3.441   0.000   5.000
tot       22.247  47.238  50.390 119.875

 magnetization (x)

[...]

  FORCE on cell =-STRESS in cart. coord.  units (eV):
  Direction    XX          YY          ZZ          XY          YZ          ZX
  Alpha Z   428.94280   428.94280   428.94280
  Ewald   -1082.73698 -1849.76689 -5377.54831    -1.63750   355.17412    -1.49882
  Hartree  2537.70719  2173.46259  -739.98456    -0.04513   149.08399    -0.06268
  E(xc)    -698.03766  -697.45931  -697.93148     0.04021    -0.26299     0.03076
  Local   -4031.28016 -2971.84485  3476.67424     1.37669  -457.73225     1.24536
  n-local  -300.93973  -318.11006  -315.54221    -0.23331    11.86941    -0.21096
  augment  1115.67587  1143.84937  1136.51327    -0.00532   -18.82395     0.01822
  Kinetic  2040.21100  2094.10711  2093.14346    -0.13115   -39.09176    -0.08540
  Fock        0.00000     0.00000     0.00000     0.00000     0.00000     0.00000
  Total       9.54234     3.18076     4.26720    -0.63550     0.21658    -0.56353
  in kB      79.25141    26.41700    35.44016    -5.27802     1.79877    -4.68028

 VOLUME and BASIS-vectors are now :
  energy-cutoff  :      500.00
  volume of cell :      192.91
      direct lattice vectors                 reciprocal lattice vectors
     2.728934050  0.000000000  0.000000000     0.366443447  0.000000000  0.000000000
     0.000000000  5.030428886  0.000000000     0.000000000  0.198790207  0.000000000
     0.000000000  0.000000000 14.052716830     0.000000000  0.000000000  0.071160617

  length of vectors
     2.728934050  5.030428886 14.052716830     0.366443447  0.198790207  0.071160617

 FORCES acting on ions:
    Electron-Ion                     Ewald-Force                    Non-Local-Force
   -.185E-01 0.633E+00 -.193E+01   0.247E-01 -.916E+00 0.235E+01   0.514E-02 0.135E-01 -.912E-01
   0.265E+01 -.113E+02 -.584E+02   -.264E+01 0.115E+02 0.592E+02   -.135E+01 0.339E+01 0.440E+01
   0.743E-01 0.327E-01 0.597E+00   -.691E-01 0.294E-01 -.681E+00   -.145E-01 -.444E-01 -.741E-02
   -.216E-03 -.552E-01 0.659E+00   0.770E-04 0.839E-02 -.789E+00   0.805E-03 0.412E-02 0.284E-01
   0.242E-02 0.335E-01 0.698E+00   -.213E-02 -.831E-02 -.793E+00   -.517E-03 -.835E-02 0.215E-01
   0.206E-02 -.883E-01 0.645E+00   -.156E-02 0.258E-01 -.761E+00   -.583E-03 0.916E-02 0.340E-01
   -.269E+00 -.923E+01 -.101E-01   0.424E+00 0.119E+02 -.223E+01   -.840E-01 -.165E+01 0.132E+01
   0.196E+00 0.111E+02 0.396E+01   -.319E+00 -.147E+02 -.774E+01   0.888E-01 0.203E+01 0.205E+01
   0.351E-01 0.400E+01 0.694E+01   -.307E-01 -.451E+01 -.803E+01   -.978E-03 0.265E+00 0.641E+00
   0.332E-01 -.399E+01 0.902E+01   -.312E-01 0.465E+01 -.105E+02   -.248E-02 -.412E+00 0.817E+00
   -.269E-01 0.125E+00 0.574E+01   0.270E-01 -.130E+00 -.588E+01   0.121E-03 -.885E-03 0.937E-01
   -.399E-01 -.119E+00 0.606E+01   0.370E-01 0.144E+00 -.619E+01   0.286E-02 -.282E-01 0.919E-01
   -.152E+00 0.307E+02 0.322E+03   0.190E+00 -.382E+02 -.339E+03   -.380E-01 0.774E+01 0.176E+02
   -.912E-01 0.198E+02 0.318E+03   0.829E-01 -.223E+02 -.332E+03   0.237E-01 0.222E+01 0.144E+02
   0.115E+00 -.251E+02 -.316E+03   -.119E+00 0.301E+02 0.329E+03   -.416E-02 -.500E+01 -.129E+02
   0.114E+00 -.252E+02 -.316E+03   -.136E+00 0.300E+02 0.329E+03   0.159E-01 -.483E+01 -.130E+02
   0.194E-01 0.252E+02 0.323E+03   -.159E-01 -.300E+02 -.337E+03   -.931E-02 0.479E+01 0.136E+02
   -.825E-02 0.250E+02 0.323E+03   0.167E-01 -.299E+02 -.337E+03   -.134E-01 0.490E+01 0.135E+02
   0.632E-01 -.284E+02 -.332E+03   -.168E+00 0.342E+02 0.348E+03   0.114E+00 -.585E+01 -.161E+02
   -.183E+01 -.180E+02 -.329E+03   0.291E+01 0.179E+02 0.341E+03   0.745E-01 -.199E+01 -.136E+02
   0.929E-02 0.275E+02 0.323E+03   0.191E-02 -.314E+02 -.336E+03   -.170E-01 0.366E+01 0.122E+02
   0.139E+00 0.236E+02 0.325E+03   -.172E+00 -.283E+02 -.340E+03   0.336E-01 0.471E+01 0.145E+02
   0.167E-01 -.251E+02 -.315E+03   -.270E-01 0.297E+02 0.328E+03   0.155E-01 -.443E+01 -.126E+02
   -.300E-01 -.254E+02 -.314E+03   0.251E-01 0.302E+02 0.326E+03   0.120E-01 -.476E+01 -.128E+02
   0.115E+01 -.473E+01 -.142E+02   -.153E-13 -.249E-13 0.114E-12   -.115E+01 0.474E+01 0.142E+02

 POSITION                                       TOTAL-FORCE (eV/Angst)
      2.72447      1.35256      2.34268         0.010279     -0.264932      0.346010
      1.40986      3.56602      1.49926        -1.189697      3.106305      4.519125
      1.37342      0.50416     11.71047        -0.006694      0.022609     -0.091202
      0.00420      3.01936     11.71012         0.000411     -0.045463     -0.106637
      0.00020      4.70101      7.02623        -0.000246      0.016509     -0.076689
      1.36467      2.18581      7.02623        -0.000086     -0.056969     -0.087918
      0.00012      4.70143     14.05266         0.066234      0.967196     -0.863688
      1.36466      2.18630      0.00012        -0.032924     -1.507230     -1.662886
      1.35754      0.51813      4.68581         0.003613     -0.235957     -0.455767
      2.72213      3.03325      4.68535        -0.000431      0.230327     -0.608762
      0.00698      1.33908      9.36738        -0.000097     -0.006632     -0.050380
      1.37152      3.85409      9.36675        -0.000322     -0.004454     -0.044482
      2.72135      4.82224      3.64455        -0.000390      0.218855      0.542725
      1.35715      2.30695      3.64407         0.015299     -0.294488      0.099334
      0.00771      4.58047     10.40812        -0.008252      0.018516      0.087463
      1.37188      2.06538     10.40866        -0.005981      0.031742      0.073277
      1.37115      0.61300      8.32568        -0.005906     -0.002676      0.060082
      0.00659      3.12779      8.32550        -0.005043      0.014236      0.046638
      1.36394      0.39734      1.04130         0.008447     -0.051385     -0.278343
      2.72846      2.91205      1.04218         1.145591     -2.062031     -1.459387
      0.00068      1.46002     13.01092        -0.005895     -0.293053     -0.303095
      1.36535      3.97465     13.01149         0.000007     -0.025323      0.152554
      2.72252      1.24454      5.72702         0.005081      0.143002      0.137452
      1.35793      3.75939      5.72689         0.007006      0.081297      0.024574
    total drift:                                0.002907      0.011682      0.007836

  FREE ENERGIE OF THE ION-ELECTRON SYSTEM (eV)
  free  energy   TOTEN  =      -125.37072113 eV

  energy  without entropy=     -125.37207129  energy(sigma->0) =     -125.37117118

 writing wavefunctions

 total charge

[...]

 magnetization (x)

# of ion     s       p       d       tot
  1        0.003   0.004   0.000   0.007
  2        0.002   0.001   0.000   0.003
  3        0.003   0.004   0.000   0.007
  4        0.003   0.004   0.000   0.007
  5        0.003   0.003   0.000   0.006
  6        0.003   0.003   0.000   0.006
  7        0.007   0.004   0.987   0.998
  8        0.007   0.004   1.256   1.267
  9        0.008   0.005   0.954   0.967
 10        0.007   0.005   0.971   0.984
 11        0.007   0.004   0.994   1.005
 12        0.007   0.004   0.991   1.001
 13        0.005  -0.075   0.000  -0.070
 14        0.004  -0.064   0.000  -0.060
 15        0.005  -0.002   0.000   0.003
 16        0.005  -0.004   0.000   0.001
 17        0.005  -0.003   0.000   0.002
 18        0.005  -0.004   0.000   0.001
 19        0.005  -0.007   0.000  -0.002
 20        0.007   0.023   0.000   0.030
 21        0.007  -0.036   0.000  -0.029
 22        0.005  -0.003   0.000   0.002
 23        0.005  -0.006   0.000  -0.001
 24        0.005  -0.031   0.000  -0.026
tot        0.125  -0.168   6.153   6.111